PROBLEM NAME: eil51_n9
KNAPSACK DATA TYPE: uncorrelated
DIMENSION: 9
NUMBER OF ITEMS: 80
CAPACITY OF KNAPSACK: 20372
MIN SPEED: 0.1
MAX SPEED: 1
RENTING RATIO: 27.86
EDGE_WEIGHT_TYPE: CEIL_2D
NODE_COORD_SECTION	(INDEX, X, Y):
1	17	63
2	31	62
3	36	16
4	52	41
5	27	23
6	62	63
7	32	22
8	5	6
9	56	37
ITEMS SECTION	(INDEX, PROFIT, WEIGHT, ASSIGNED NODE NUMBER):
1	979	192	2
2	965	77	2
3	941	694	2
4	928	539	2
5	921	694	2
6	915	880	2
7	904	567	2
8	868	753	2
9	861	131	2
10	848	454	2
11	839	116	6
12	827	561	6
13	814	834	6
14	813	354	6
15	792	68	6
16	790	280	6
17	789	762	6
18	787	714	6
19	786	810	6
20	773	586	6
21	753	519	4
22	752	4	4
23	748	144	4
24	714	698	4
25	710	872	4
26	682	337	4
27	652	486	4
28	647	883	4
29	623	691	4
30	605	134	4
31	585	101	9
32	575	685	9
33	568	646	9
34	560	764	9
35	559	50	9
36	545	431	9
37	542	387	9
38	537	24	9
39	526	794	9
40	516	425	9
41	488	354	3
42	477	851	3
43	425	290	3
44	393	17	3
45	386	893	3
46	376	758	3
47	374	13	3
48	374	257	3
49	373	110	3
50	364	139	3
51	363	773	7
52	363	546	7
53	358	743	7
54	355	415	7
55	353	938	7
56	320	374	7
57	314	313	7
58	313	593	7
59	300	421	7
60	292	800	7
61	264	58	5
62	245	675	5
63	242	954	5
64	234	355	5
65	229	211	5
66	225	696	5
67	217	532	5
68	205	460	5
69	180	81	5
70	156	677	5
71	155	432	8
72	112	139	8
73	111	852	8
74	111	936	8
75	106	29	8
76	83	194	8
77	70	246	8
78	50	498	8
79	49	227	8
80	26	359	8
